c "902648.clq"
p edge 100 1344
e 1 17
e 1 18
e 1 19
e 1 24
e 1 25
e 1 26
e 1 34
e 1 38
e 1 51
e 1 52
e 1 56
e 1 64
e 1 69
e 1 75
e 1 93
e 2 17
e 2 18
e 2 19
e 2 23
e 2 28
e 2 31
e 2 37
e 2 38
e 2 42
e 2 43
e 2 73
e 2 76
e 2 78
e 2 87
e 2 88
e 3 17
e 3 20
e 3 27
e 3 28
e 3 30
e 3 52
e 3 65
e 3 88
e 3 89
e 4 17
e 4 18
e 4 19
e 4 20
e 4 21
e 4 22
e 4 23
e 4 24
e 4 25
e 4 26
e 4 27
e 4 28
e 4 33
e 4 36
e 4 37
e 4 39
e 4 40
e 4 41
e 4 44
e 4 46
e 4 57
e 4 59
e 4 64
e 4 68
e 4 73
e 4 78
e 4 94
e 4 96
e 4 99
e 5 17
e 5 18
e 5 19
e 5 20
e 5 22
e 5 25
e 5 29
e 5 30
e 5 31
e 5 32
e 5 33
e 5 34
e 5 36
e 5 37
e 5 40
e 5 42
e 5 43
e 5 47
e 5 50
e 5 52
e 5 58
e 5 63
e 5 64
e 5 67
e 5 77
e 6 17
e 6 18
e 6 20
e 6 21
e 6 22
e 6 23
e 6 24
e 6 27
e 6 28
e 6 30
e 6 31
e 6 33
e 6 35
e 6 37
e 6 43
e 6 46
e 6 54
e 6 55
e 6 58
e 6 63
e 6 65
e 6 69
e 6 74
e 6 75
e 6 88
e 6 96
e 6 99
e 7 17
e 7 18
e 7 19
e 7 20
e 7 21
e 7 22
e 7 23
e 7 24
e 7 28
e 7 30
e 7 33
e 7 35
e 7 40
e 7 43
e 7 46
e 7 47
e 7 48
e 7 51
e 7 56
e 7 58
e 7 59
e 7 63
e 7 69
e 7 70
e 7 74
e 7 79
e 7 90
e 7 95
e 7 97
e 8 17
e 8 18
e 8 19
e 8 20
e 8 21
e 8 22
e 8 23
e 8 24
e 8 25
e 8 26
e 8 27
e 8 29
e 8 33
e 8 34
e 8 35
e 8 37
e 8 40
e 8 42
e 8 44
e 8 48
e 8 54
e 8 61
e 8 69
e 8 70
e 8 72
e 8 75
e 8 76
e 8 77
e 8 79
e 8 84
e 9 17
e 9 18
e 9 19
e 9 20
e 9 21
e 9 23
e 9 26
e 9 28
e 9 31
e 9 38
e 9 41
e 9 44
e 9 45
e 9 49
e 9 60
e 9 65
e 9 66
e 9 67
e 9 76
e 9 79
e 9 89
e 10 17
e 10 18
e 10 19
e 10 20
e 10 21
e 10 22
e 10 23
e 10 24
e 10 29
e 10 30
e 10 37
e 10 45
e 10 48
e 10 56
e 10 60
e 10 71
e 10 83
e 10 97
e 11 17
e 11 18
e 11 19
e 11 20
e 11 21
e 11 22
e 11 23
e 11 24
e 11 25
e 11 26
e 11 27
e 11 29
e 11 30
e 11 33
e 11 34
e 11 36
e 11 38
e 11 39
e 11 43
e 11 47
e 11 50
e 11 52
e 11 53
e 11 57
e 11 59
e 11 61
e 11 63
e 11 71
e 11 74
e 11 75
e 11 81
e 11 85
e 11 87
e 11 90
e 11 92
e 11 95
e 11 96
e 11 97
e 11 99
e 11 100
e 12 17
e 12 18
e 12 19
e 12 20
e 12 21
e 12 22
e 12 25
e 12 26
e 12 27
e 12 29
e 12 30
e 12 32
e 12 34
e 12 39
e 12 41
e 12 46
e 12 53
e 12 56
e 12 57
e 12 60
e 12 61
e 12 63
e 12 73
e 12 77
e 12 83
e 12 86
e 12 94
e 13 17
e 13 18
e 13 19
e 13 21
e 13 22
e 13 23
e 13 24
e 13 25
e 13 27
e 13 31
e 13 34
e 13 35
e 13 36
e 13 38
e 13 40
e 13 41
e 13 42
e 13 43
e 13 46
e 13 50
e 13 51
e 13 59
e 13 60
e 13 64
e 13 66
e 13 67
e 13 70
e 13 72
e 13 74
e 13 80
e 13 81
e 13 88
e 13 89
e 13 91
e 13 93
e 13 96
e 14 17
e 14 18
e 14 19
e 14 20
e 14 21
e 14 22
e 14 24
e 14 26
e 14 28
e 14 29
e 14 30
e 14 31
e 14 32
e 14 33
e 14 40
e 14 42
e 14 45
e 14 47
e 14 50
e 14 53
e 14 54
e 14 60
e 14 62
e 14 66
e 14 68
e 14 70
e 14 74
e 14 77
e 14 80
e 14 83
e 14 84
e 14 87
e 14 88
e 14 89
e 14 91
e 14 92
e 14 94
e 15 17
e 15 18
e 15 19
e 15 20
e 15 21
e 15 23
e 15 25
e 15 26
e 15 27
e 15 31
e 15 32
e 15 34
e 15 38
e 15 41
e 15 42
e 15 43
e 15 44
e 15 45
e 15 49
e 15 57
e 15 61
e 15 62
e 15 65
e 15 66
e 15 68
e 15 70
e 15 76
e 15 82
e 15 84
e 15 89
e 15 91
e 15 93
e 16 17
e 16 18
e 16 19
e 16 20
e 16 21
e 16 22
e 16 24
e 16 29
e 16 34
e 16 35
e 16 43
e 16 47
e 16 53
e 16 61
e 16 66
e 16 76
e 16 80
e 16 90
e 17 18
e 17 19
e 17 20
e 17 21
e 17 22
e 17 23
e 17 24
e 17 25
e 17 26
e 17 27
e 17 28
e 17 29
e 17 30
e 17 32
e 17 33
e 17 35
e 17 36
e 17 38
e 17 39
e 17 41
e 17 45
e 17 46
e 17 50
e 17 51
e 17 52
e 17 55
e 17 56
e 17 57
e 17 58
e 17 59
e 17 61
e 17 62
e 17 64
e 17 66
e 17 68
e 17 70
e 17 71
e 17 72
e 17 76
e 17 77
e 17 79
e 17 80
e 17 81
e 17 82
e 17 85
e 17 86
e 17 93
e 17 94
e 17 98
e 17 99
e 18 19
e 18 20
e 18 21
e 18 22
e 18 23
e 18 24
e 18 25
e 18 26
e 18 27
e 18 28
e 18 29
e 18 31
e 18 32
e 18 33
e 18 35
e 18 36
e 18 37
e 18 38
e 18 39
e 18 40
e 18 42
e 18 44
e 18 46
e 18 48
e 18 51
e 18 52
e 18 53
e 18 55
e 18 56
e 18 57
e 18 63
e 18 64
e 18 70
e 18 72
e 18 73
e 18 74
e 18 75
e 18 78
e 18 81
e 18 82
e 18 84
e 18 85
e 18 88
e 18 92
e 18 93
e 18 94
e 18 98
e 18 100
e 19 20
e 19 21
e 19 22
e 19 23
e 19 24
e 19 25
e 19 26
e 19 27
e 19 29
e 19 30
e 19 31
e 19 32
e 19 33
e 19 35
e 19 36
e 19 37
e 19 39
e 19 40
e 19 41
e 19 44
e 19 47
e 19 48
e 19 49
e 19 50
e 19 54
e 19 56
e 19 57
e 19 59
e 19 60
e 19 61
e 19 62
e 19 63
e 19 65
e 19 68
e 19 70
e 19 72
e 19 75
e 19 80
e 19 81
e 19 82
e 19 83
e 19 84
e 19 91
e 19 92
e 19 93
e 19 98
e 20 21
e 20 22
e 20 23
e 20 24
e 20 25
e 20 26
e 20 28
e 20 29
e 20 33
e 20 34
e 20 37
e 20 39
e 20 42
e 20 45
e 20 46
e 20 55
e 20 56
e 20 60
e 20 64
e 20 67
e 20 69
e 20 74
e 20 77
e 20 78
e 20 79
e 20 82
e 20 84
e 20 85
e 20 87
e 20 89
e 20 92
e 21 22
e 21 23
e 21 25
e 21 26
e 21 27
e 21 28
e 21 30
e 21 32
e 21 33
e 21 34
e 21 35
e 21 38
e 21 42
e 21 43
e 21 45
e 21 47
e 21 48
e 21 49
e 21 51
e 21 52
e 21 53
e 21 55
e 21 58
e 21 59
e 21 61
e 21 63
e 21 64
e 21 68
e 21 69
e 21 76
e 21 80
e 21 81
e 21 85
e 21 87
e 21 88
e 21 92
e 21 95
e 21 96
e 21 99
e 22 23
e 22 24
e 22 25
e 22 26
e 22 27
e 22 28
e 22 29
e 22 30
e 22 31
e 22 32
e 22 34
e 22 35
e 22 36
e 22 38
e 22 39
e 22 41
e 22 42
e 22 43
e 22 44
e 22 45
e 22 47
e 22 48
e 22 49
e 22 57
e 22 58
e 22 60
e 22 62
e 22 63
e 22 65
e 22 72
e 22 74
e 22 80
e 22 83
e 22 85
e 22 89
e 22 92
e 22 93
e 22 96
e 22 100
e 23 24
e 23 25
e 23 26
e 23 27
e 23 28
e 23 29
e 23 30
e 23 32
e 23 33
e 23 35
e 23 37
e 23 40
e 23 43
e 23 44
e 23 52
e 23 54
e 23 55
e 23 56
e 23 61
e 23 66
e 23 71
e 23 72
e 23 78
e 23 83
e 23 84
e 23 94
e 24 25
e 24 26
e 24 27
e 24 28
e 24 29
e 24 31
e 24 32
e 24 34
e 24 36
e 24 37
e 24 38
e 24 40
e 24 45
e 24 48
e 24 49
e 24 54
e 24 57
e 24 58
e 24 59
e 24 60
e 24 61
e 24 64
e 24 65
e 24 67
e 24 68
e 24 85
e 24 91
e 24 96
e 24 99
e 25 28
e 25 29
e 25 30
e 25 31
e 25 32
e 25 34
e 25 38
e 25 39
e 25 43
e 25 45
e 25 46
e 25 47
e 25 52
e 25 53
e 25 54
e 25 59
e 25 71
e 25 84
e 25 85
e 25 86
e 25 87
e 25 90
e 25 94
e 25 99
e 26 27
e 26 30
e 26 31
e 26 32
e 26 33
e 26 35
e 26 37
e 26 38
e 26 39
e 26 41
e 26 42
e 26 43
e 26 45
e 26 46
e 26 47
e 26 48
e 26 50
e 26 56
e 26 57
e 26 58
e 26 62
e 26 64
e 26 65
e 26 66
e 26 68
e 26 73
e 26 74
e 26 78
e 26 81
e 26 86
e 26 88
e 26 92
e 26 96
e 27 28
e 27 29
e 27 30
e 27 31
e 27 32
e 27 33
e 27 34
e 27 35
e 27 36
e 27 37
e 27 38
e 27 39
e 27 41
e 27 42
e 27 44
e 27 46
e 27 47
e 27 48
e 27 49
e 27 50
e 27 51
e 27 52
e 27 56
e 27 58
e 27 59
e 27 62
e 27 63
e 27 66
e 27 68
e 27 69
e 27 71
e 27 73
e 27 74
e 27 77
e 27 78
e 27 79
e 27 81
e 27 86
e 27 87
e 27 93
e 27 94
e 27 95
e 27 96
e 28 32
e 28 34
e 28 36
e 28 40
e 28 41
e 28 44
e 28 45
e 28 48
e 28 49
e 28 52
e 28 54
e 28 55
e 28 59
e 28 61
e 28 62
e 28 65
e 28 67
e 28 73
e 28 75
e 28 76
e 28 84
e 28 87
e 28 89
e 28 95
e 28 96
e 28 97
e 28 100
e 29 31
e 29 32
e 29 33
e 29 35
e 29 39
e 29 40
e 29 42
e 29 51
e 29 54
e 29 55
e 29 67
e 29 69
e 29 79
e 29 91
e 29 93
e 29 98
e 29 100
e 30 31
e 30 34
e 30 35
e 30 36
e 30 39
e 30 43
e 30 44
e 30 45
e 30 48
e 30 50
e 30 51
e 30 52
e 30 53
e 30 57
e 30 62
e 30 65
e 30 72
e 30 75
e 30 83
e 30 90
e 30 91
e 30 93
e 30 94
e 30 96
e 30 97
e 31 36
e 31 37
e 31 38
e 31 39
e 31 43
e 31 49
e 31 50
e 31 51
e 31 55
e 31 57
e 31 68
e 31 82
e 31 87
e 31 88
e 31 89
e 31 91
e 32 35
e 32 36
e 32 39
e 32 40
e 32 41
e 32 42
e 32 48
e 32 50
e 32 51
e 32 52
e 32 54
e 32 56
e 32 58
e 32 59
e 32 60
e 32 65
e 32 67
e 32 69
e 32 70
e 32 71
e 32 72
e 32 73
e 32 83
e 32 97
e 33 40
e 33 41
e 33 44
e 33 45
e 33 49
e 33 51
e 33 53
e 33 54
e 33 55
e 33 56
e 33 65
e 33 67
e 33 69
e 33 70
e 33 73
e 33 74
e 33 79
e 33 83
e 33 86
e 33 88
e 34 36
e 34 37
e 34 42
e 34 46
e 34 49
e 34 54
e 34 55
e 34 60
e 34 61
e 34 63
e 34 66
e 34 67
e 34 68
e 34 71
e 34 77
e 34 81
e 34 91
e 34 93
e 34 98
e 34 100
e 35 36
e 35 37
e 35 39
e 35 41
e 35 44
e 35 46
e 35 47
e 35 52
e 35 54
e 35 59
e 35 60
e 35 63
e 35 64
e 35 68
e 35 69
e 35 75
e 35 78
e 35 80
e 35 84
e 35 88
e 35 91
e 35 95
e 35 97
e 36 40
e 36 41
e 36 45
e 36 47
e 36 50
e 36 51
e 36 52
e 36 53
e 36 55
e 36 58
e 36 61
e 36 62
e 36 67
e 36 69
e 36 70
e 36 72
e 36 81
e 36 82
e 36 85
e 36 94
e 36 97
e 36 99
e 36 100
e 37 38
e 37 40
e 37 42
e 37 46
e 37 48
e 37 49
e 37 66
e 37 68
e 37 70
e 37 71
e 37 76
e 37 79
e 37 80
e 37 83
e 37 85
e 37 93
e 37 98
e 38 41
e 38 46
e 38 50
e 38 53
e 38 56
e 38 57
e 38 89
e 38 90
e 38 94
e 39 47
e 39 48
e 39 51
e 39 58
e 39 63
e 39 72
e 39 79
e 39 81
e 39 89
e 39 96
e 40 48
e 40 55
e 40 61
e 40 78
e 40 81
e 40 92
e 41 43
e 41 44
e 41 50
e 41 55
e 41 65
e 41 76
e 41 86
e 42 44
e 42 47
e 42 49
e 42 51
e 42 56
e 42 58
e 42 62
e 42 63
e 42 65
e 42 71
e 42 76
e 42 84
e 42 85
e 42 86
e 42 96
e 43 44
e 43 47
e 43 61
e 43 76
e 43 81
e 43 85
e 43 90
e 43 91
e 43 95
e 44 45
e 44 49
e 44 50
e 44 57
e 44 67
e 44 74
e 44 78
e 44 80
e 44 99
e 45 46
e 45 51
e 45 53
e 45 62
e 45 63
e 45 66
e 45 67
e 45 70
e 45 75
e 45 78
e 45 82
e 45 95
e 45 98
e 46 49
e 46 54
e 46 56
e 46 70
e 46 71
e 46 72
e 46 89
e 46 90
e 46 99
e 47 49
e 47 53
e 47 54
e 47 59
e 47 77
e 47 95
e 47 97
e 47 98
e 48 53
e 48 54
e 48 61
e 48 66
e 48 70
e 48 89
e 48 90
e 48 94
e 48 97
e 48 98
e 49 50
e 49 52
e 49 53
e 49 58
e 49 60
e 49 65
e 49 69
e 49 77
e 49 83
e 49 94
e 49 95
e 50 53
e 50 59
e 50 72
e 50 73
e 50 86
e 50 92
e 51 62
e 51 66
e 51 69
e 51 72
e 51 78
e 51 80
e 51 83
e 51 84
e 51 86
e 51 88
e 52 55
e 52 57
e 52 65
e 52 67
e 52 68
e 52 70
e 52 73
e 52 76
e 52 79
e 52 81
e 52 87
e 52 90
e 53 60
e 53 67
e 53 78
e 54 55
e 54 58
e 54 59
e 54 62
e 54 64
e 54 69
e 54 71
e 54 77
e 54 88
e 54 93
e 55 63
e 55 64
e 55 77
e 55 80
e 55 82
e 55 90
e 55 91
e 56 57
e 56 58
e 56 60
e 56 75
e 56 76
e 56 77
e 56 79
e 56 92
e 56 97
e 57 92
e 57 97
e 57 100
e 58 60
e 58 73
e 58 78
e 58 96
e 58 98
e 58 100
e 59 62
e 59 64
e 59 66
e 59 73
e 59 74
e 59 75
e 59 86
e 59 87
e 59 99
e 60 62
e 60 71
e 60 82
e 60 94
e 61 64
e 61 66
e 61 74
e 61 78
e 61 79
e 61 80
e 61 82
e 61 85
e 61 95
e 61 100
e 62 64
e 62 71
e 62 72
e 62 73
e 62 80
e 62 86
e 62 87
e 62 97
e 63 68
e 63 69
e 63 73
e 63 75
e 63 83
e 63 90
e 63 91
e 63 92
e 63 95
e 63 97
e 63 98
e 63 100
e 64 73
e 64 76
e 64 81
e 64 82
e 64 84
e 64 86
e 64 90
e 64 98
e 64 99
e 64 100
e 65 75
e 65 76
e 65 77
e 65 95
e 65 97
e 65 99
e 66 67
e 66 71
e 66 78
e 66 100
e 67 68
e 67 71
e 67 77
e 67 80
e 67 82
e 67 92
e 67 96
e 68 85
e 69 74
e 69 75
e 69 79
e 69 82
e 69 89
e 70 72
e 70 81
e 71 74
e 71 75
e 71 77
e 71 83
e 71 84
e 71 86
e 71 87
e 71 93
e 73 83
e 73 94
e 73 96
e 74 82
e 74 93
e 74 99
e 75 79
e 75 86
e 75 90
e 76 85
e 76 86
e 76 88
e 76 89
e 76 95
e 77 79
e 77 84
e 77 87
e 77 91
e 78 80
e 78 87
e 79 84
e 80 89
e 80 92
e 81 82
e 81 87
e 81 88
e 81 91
e 81 98
e 82 83
e 82 85
e 82 91
e 82 98
e 84 95
e 85 88
e 85 90
e 85 92
e 85 93
e 86 97
e 87 99
e 88 90
e 88 94
e 88 100
e 90 95
e 91 98
e 91 100
e 92 98
e 94 99
e 94 100
